# avogadro generated ORCA input file 
# Basic Mode
# 
! wB97X-D3 OPT def2-TZVP def2/J CPCM
%cpcm
  epsilon 3
end
%pal
 nprocs 4
end
 

* xyz 0 1
   C       -6.62986       -0.13917       -4.08638
   C       -5.78114        0.11707       -2.84398
   H       -7.68146       -0.33074       -3.78575
   H       -6.25019       -1.02618       -4.63699
   H       -6.60779        0.74491       -4.75866
   C       -4.31682        0.38544       -3.21567
   H       -5.84127       -0.77403       -2.18163
   H       -6.19625        0.99397       -2.30073
   C       -3.46957        0.65126       -1.94231
   H       -4.30138        1.26845       -3.88661
   H       -3.92717       -0.48962       -3.77336
   N       -1.98740        0.82311       -2.15246
   H       -3.65985       -0.18473       -1.24021
   H       -3.89266        1.56082       -1.45657
   C       -1.78870        1.93605       -3.15567
   C       -0.32320        2.35170       -3.45580
   H       -2.33947        2.84848       -2.82831
   H       -2.20610        1.63761       -4.14044
   C       -0.28024        3.43208       -4.54566
   H        0.25885        1.47602       -3.81157
   H        0.16462        2.77631       -2.55630
   C        1.15479        3.85081       -4.85438
   H        1.74179        2.97984       -5.21618
   H        1.64028        4.26618       -3.94561
   H        1.15310        4.63116       -5.64431
   H       -0.84921        4.32596       -4.20846
   H       -0.74606        3.04407       -5.47776
   C       -1.32902       -0.42436       -2.69154
   C       -1.83702       -1.80120       -2.17321
   H       -0.23125       -0.36792       -2.51831
   H       -1.47106       -0.47547       -3.79535
   C       -1.03050       -2.94271       -2.80815
   H       -2.90082       -1.95432       -2.44100
   H       -1.75829       -1.90183       -1.08206
   C       -1.52488       -4.30558       -2.32993
   H       -1.42076       -4.38925       -1.22711
   H       -0.92241       -5.10794       -2.80551
   H       -2.59079       -4.44915       -2.60798
   H        0.04260       -2.83684       -2.53691
   H       -1.12438       -2.89817       -3.91524
   C       -1.36529        1.28417       -0.85603
   C       -1.49417        0.37039        0.38312
   H       -1.81004        2.26816       -0.57752
   H       -0.27378        1.43527       -0.97815
   C       -0.90381        1.05887        1.62300
   H       -0.91182       -0.55491        0.23099
   H       -2.55518        0.13763        0.60279
   C       -1.00522        0.16334        2.85510
   H       -0.44428       -0.78174        2.69316
   H       -2.06806       -0.07572        3.07247
   H       -0.57218        0.68755        3.73295
   H       -1.45335        2.00443        1.82404
   H        0.16696        1.30088        1.44508
   F        0.38265        4.13814        0.05971
*

