# avogadro generated ORCA input file 
# Basic Mode
# 
! wB97X-D3 OPT def2-TZVP def2/J CPCM
%cpcm
  epsilon 3
end
%pal
 nprocs 4
end
 

* xyz 0 1
   O        1.07761        0.08434       -0.05997
   C        2.29872        0.07603       -0.05991
   O        2.97164        1.25472       -0.05939
   C        4.32723        1.32177       -0.05928
   O        4.87212        2.41460       -0.05882
   C        5.13076        0.07271       -0.05971
   C        6.53432        0.10057       -0.05958
   C        7.26556       -1.09014       -0.06000
   C        6.60589       -2.32934       -0.06057
   C        5.19770       -2.37011       -0.06071
   C        4.52442       -3.60759       -0.06128
   C        3.12086       -3.63545       -0.06141
   C        2.38962       -2.44474       -0.06096
   C        3.04929       -1.20554       -0.06039
   C        4.45748       -1.16477       -0.06027
   C        5.32795       -4.85665       -0.06174
   O        4.78306       -5.94948       -0.06226
   O        6.68354       -4.78960       -0.06159
   C        7.35646       -3.61091       -0.06104
   O        8.57757       -3.61922       -0.06093
   H        7.06697        1.04333       -0.05915
   H        8.34729       -1.04149       -0.05988
   H        2.58821       -4.57821       -0.06185
   H        1.30789       -2.49339       -0.06107
*

