# avogadro generated ORCA input file 
# Basic Mode
# 
! wB97X-D3 OPT def2-TZVP def2/J CPCM
%cpcm
  epsilon 3
end
%pal
 nprocs 4
end 

* xyz 0 1
   N        1.31033        0.02579       -0.05722
   C        2.46683        0.03909       -0.06048
   C        3.89657        0.05994       -0.06514
   N        4.53027       -1.13107       -0.06869
   C        5.88282       -1.18397       -0.07362
   C        6.52168       -2.41681       -0.07612
   N        5.79786       -3.56256       -0.07309
   C        6.42411       -4.76039       -0.07530
   C        5.60495       -5.92969       -0.07022
   N        4.94989       -6.88276       -0.06613
   C        7.81736       -4.82288       -0.07948
   C        8.52954       -6.05981       -0.08073
   N        9.09897       -7.06621       -0.08171
   N        8.54768       -3.68655       -0.08283
   C        7.92898       -2.48110       -0.08186
   C        8.67697       -1.31210       -0.08554
   N       10.02862       -1.38357       -0.09144
   C       10.76913       -0.25612       -0.09587
   C       12.19069       -0.40842       -0.10233
   N       13.34120       -0.52807       -0.10755
   C       10.14294        0.99091       -0.09429
   C       10.89066        2.20839       -0.10075
   N       11.51827        3.17982       -0.10607
   N        8.78920        1.07748       -0.08752
   C        8.03478       -0.05166       -0.08299
   C        6.63782        0.01231       -0.07629
   N        5.99053        1.20591       -0.07219
   C        4.63478        1.24424       -0.06623
   C        4.00279        2.52572       -0.05990
   N        3.46834        3.55139       -0.05471
*

