# avogadro generated ORCA input file 
# Basic Mode
# 
! wB97X-D3 OPT def2-TZVP def2/J CPCM
%cpcm
  epsilon 3
end
%pal
 nprocs 4
end

* xyz 0 1
   C       -0.38838        4.42479        0.19957
   C       -1.11716        3.23911        0.05784
   C       -0.81317        5.40989        1.09097
   C       -2.29477        3.02423        0.81172
   C       -1.97073        5.21518        1.84417
   C       -2.71079        4.03589        1.70902
   C       -2.38774        0.28635        0.31734
   C       -1.07394        0.04319        0.78305
   C       -0.42591       -1.16103        0.48842
   C       -3.02249       -0.71732       -0.45195
   C       -2.36189       -1.91582       -0.74217
   C       -1.06752       -2.13775       -0.27276
   F        0.73381        4.62073       -0.53685
   F       -0.68078        2.32388       -0.84491
   F       -0.10111        6.55647        1.22522
   F       -2.37707        6.17214        2.71549
   F       -3.81295        3.87997        2.48621
   F       -4.26898       -0.53605       -0.95815
   F       -2.98023       -2.86509       -1.48827
   F       -0.43309       -3.30259       -0.55629
   F        0.83039       -1.38310        0.94935
   F       -0.41929        0.94891        1.55377
   B       -3.13912        1.66667        0.65349
   C       -4.73562        1.69237        0.83209
   C       -5.48788        2.83183        0.46120
   C       -6.87785        2.84840        0.61714
   C       -5.42528        0.57762        1.36420
   C       -7.54007        1.74034        1.14518
   C       -6.81536        0.60862        1.51851
   F       -4.89299        3.92270       -0.08580
   F       -7.58646        3.94475        0.24840
   F       -4.76111       -0.53427        1.77105
   F       -7.46194       -0.46443        2.03867
   F       -8.88786        1.76346        1.29561
*

