# avogadro generated ORCA input file 
# Basic Mode
# 
! BP RI OPT def2-TZVP def2-TZVP/J 

* xyz 0 1
   C       -9.31066        1.04047        0.08788
   C       -9.23788       -0.34933        0.15573
   C       -8.14435        1.80658        0.08107
   H      -10.27628        1.52735        0.04025
   C       -7.99806       -0.98675        0.21751
   H      -10.14725       -0.93649        0.16052
   C       -6.88042        1.18705        0.14257
   H       -8.24404        2.88224        0.02744
   C       -6.80590       -0.23584        0.21211
   H       -7.98484       -2.06703        0.26916
   C       -5.68651        1.94546        0.13673
   C       -5.53945       -0.86266        0.27411
   C       -4.45811        1.30365        0.19839
   C       -4.38495       -0.09340        0.26681
   C       -3.30360        2.07291        0.19092
   C       -3.15655       -0.73521        0.32859
   C       -2.03715        1.44608        0.25286
   C       -1.96264        0.02321        0.32268
   C       -0.84498        2.19697        0.24714
   C        0.39483        1.55956        0.30896
   H       -0.85820        3.27724        0.19517
   C       -0.69871       -0.59632        0.38430
   C        0.46761        0.16978        0.37723
   H       -0.59903       -1.67197        0.43823
   H        1.30421        2.14671        0.30390
   H        1.43323       -0.31710        0.42495
   S       -5.65674        3.73894        0.05217
   S       -3.52052        3.85317        0.10045
   S       -5.32252       -2.64294        0.36429
   S       -3.18633       -2.52867        0.41343
*

