# avogadro generated ORCA input file 
# Basic Mode
# 
! wB97X-D3 OPT def2-TZVP def2/J CPCM
%cpcm
  epsilon 3
end
%pal
 nprocs 4
end

* xyz 0 1
   C        0.37510        4.98468        0.81812
   C        0.06008        3.63407        0.62128
   C       -0.63676        5.90867        1.09641
   C       -1.27259        3.20203        0.70248
   C       -1.96526        5.48292        1.17821
   C       -2.27886        4.13409        0.98152
  Zn       -1.97066        1.38958        0.47055
   C       -1.14090       -0.33693        0.07470
   C        0.21830       -0.61757       -0.13290
   C        0.63231       -1.92717       -0.40797
   C       -2.07374       -1.37805        0.00367
   C       -1.66127       -2.68604       -0.27094
   C       -0.30671       -2.96089       -0.47699
   F        1.66457        5.39811        0.73876
   F        1.05485        2.76461        0.35442
   F       -0.32961        7.21599        1.28668
   F       -2.94937        6.37642        1.44798
   F       -3.56705        3.72000        1.06061
   F       -3.38731       -1.11029        0.20369
   F       -2.57492       -3.68627       -0.33714
   F        0.09625       -4.22825       -0.74346
   F        1.94710       -2.19413       -0.60799
   F        1.14435        0.35992       -0.07208
*

