# avogadro generated ORCA input file 
# Basic Mode
# 
! wB97X-D3 OPT def2-TZVP def2/J CPCM
%cpcm
  epsilon 3
end
%pal
 nprocs 4
end 

* xyz 0 1
   F        0.77889        0.22952       -0.34405
   C        2.10920        0.06578       -0.12157
   C        2.67176       -1.20938        0.09901
   C        4.06544       -1.25233        0.33067
   F        4.71041       -2.41821        0.59828
   C        4.84873       -0.09205        0.31774
   F        6.12202       -0.27407        0.67080
   C        1.89674       -2.34000        0.09997
   C        2.43628       -3.66577        0.32869
   N        2.79276       -4.75354        0.50253
   N        0.52651       -2.29056       -0.12235
   C       -0.61768       -2.33139       -0.29929
   C        2.89205        1.22535       -0.12474
   F        2.19770        2.36552       -0.37224
   C        4.31594        1.19651        0.07053
   C        5.08969        2.36254        0.04870
   C        4.30370        3.66354        0.04348
   N        3.65165        4.74282        0.03916
   C        6.59344        2.45721        0.05263
   O        7.36065        1.42814       -0.41315
   C        8.74606        1.38970       -0.54013
   C        9.33823        0.12198        0.12775
   C        9.10551        0.17780        1.64949
   C        8.78439       -1.15904       -0.56800
   C        9.13874       -2.48894        0.12088
   C        8.46839       -3.66964       -0.60176
   C        8.71889       -4.99316        0.13194
   C        8.00208       -6.15149       -0.55898
   O        7.11546        3.53349        0.30694
   H        9.21968        2.30026       -0.11225
   H        8.99593        1.36315       -1.62231
   H       10.44115        0.12721       -0.01700
   H        8.03440        0.16306        1.91702
   H        9.54799        1.10958        2.06142
   H        9.61190       -0.66686        2.15936
   H        9.15068       -1.17726       -1.61785
   H        7.68895       -1.11794       -0.63464
   H        8.74441       -2.47716        1.15887
   H       10.24112       -2.62522        0.14967
   H        8.85023       -3.73730       -1.64386
   H        7.36943       -3.49385       -0.63622
   H        8.33754       -4.91878        1.17423
   H        9.80921       -5.20474        0.16465
   H        6.90546       -5.97073       -0.57895
   H        8.19240       -7.09376       -0.00290
   H        8.37014       -6.27059       -1.59987
*

