# avogadro generated ORCA input file 
# Basic Mode
# 
! wB97X-D3 OPT def2-TZVP def2/J CPCM
%cpcm
  epsilon 3
end
%pal
 nprocs 4
end

* xyz 0 1
   C        1.05974        2.73732        0.34529
   C        0.24559        1.47059        0.28125
   H        0.77151        3.33624        1.23230
   H        0.88783        3.33583       -0.57519
   H        2.14879        2.52513        0.40542
   C       -1.91190        2.82305        0.12976
   C       -1.17601        1.50993        0.17332
   H       -3.00833        2.67842        0.02939
   H       -1.56815        3.41321       -0.74704
   H       -1.71843        3.40048        1.05670
   C        0.91266        0.22876        0.28417
   C       -1.90453        0.30285        0.06232
   C        0.15771       -0.93927        0.14106
   H        1.99126        0.19236        0.33559
   C       -1.19994       -0.90376        0.02842
   H       -2.98075        0.31824       -0.04617
   N        0.61213       -2.26347       -0.03035
   N       -1.69275       -2.21050       -0.21338
   C       -0.52482       -3.02900       -0.54583
   C       -0.56834       -4.50092       -0.14005
   H       -0.45047       -3.04197       -1.65557
   C        2.00622       -2.66003       -0.05432
   H        2.14616       -3.59625        0.52341
   H        2.65046       -1.90425        0.43647
   H        2.33863       -2.79471       -1.10289
   C       -3.05078       -2.49364       -0.63760
   H       -3.48953       -1.62893       -1.17418
   H       -3.68052       -2.71339        0.25073
   H       -3.06825       -3.36671       -1.32205
   C        0.44325       -5.34534       -0.64372
   C       -1.61315       -6.46535        0.86374
   C        0.43070       -6.71765       -0.39647
   H        1.23897       -4.94697       -1.25811
   C       -0.59971       -7.28009        0.35278
   H        1.21427       -7.34520       -0.80267
   H       -0.61458       -8.34836        0.52863
   C       -1.60115       -5.08287        0.62451
   H       -2.41599       -6.91144        1.43631
   H       -2.40822       -4.49179        1.02606
*

