# avogadro generated ORCA input file 
# Basic Mode
# 
! wB97X-D3 OPT def2-TZVP def2/J CPCM
%cpcm
  epsilon 3
end
%pal
 nprocs 4
end 

* xyz 0 1
   C        9.72103        8.50359        3.60781
   C        9.88402        8.66918        2.10910
   C       10.27306        9.79919        4.20128
   H       10.30342        7.62971        3.96202
   H        8.65459        8.31896        3.86177
   C       11.70787        9.91709        3.59813
   S       11.51770        9.42313        1.83289
   H        9.12815        9.39106        1.73047
   H        9.76676        7.68923        1.60067
   C       12.77182        9.01639        4.30161
   H       12.04881       10.96801        3.63576
   C       10.11407        9.82033        5.74428
   H        9.62725       10.60728        3.78434
   C       10.04186       11.21147        6.39816
   H       10.84577        9.15517        6.24672
   H        9.10984        9.39335        5.96430
   C       11.31024       12.06441        6.35159
   H        9.78021       11.05117        7.46802
   H        9.20729       11.77701        5.92687
   C       11.05576       13.39179        7.08688
   H       12.14716       11.51579        6.83560
   H       11.57323       12.29211        5.30195
   C       12.28401       14.30117        7.06176
   H       10.78016       13.18378        8.14458
   H       10.20891       13.92103        6.59570
   C       12.01070       15.62628        7.76643
   H       12.92123       16.26106        7.72846
   H       11.74301       15.45029        8.83008
   H       11.17971       16.16653        7.26486
   H       12.56290       14.50999        6.00792
   H       13.12697       13.79741        7.57659
   H       16.42632       10.71001        6.43383
   C       15.57148       10.70466        5.72665
   H       14.81981       10.01697        6.15274
   C       15.00153       12.13360        5.72098
   H       14.09864       12.18746        5.07853
   H       14.69599       12.35775        6.76354
   C       16.02862       13.19182        5.27982
   H       16.32795       13.01775        4.22563
   H       16.92824       13.11909        5.93001
   C       15.45048       14.60655        5.38212
   H       14.55767       14.68312        4.72397
   H       15.14873       14.80430        6.43372
   C       16.48007       15.65764        4.95339
   H       17.37788       15.58952        5.60582
   H       16.78843       15.47261        3.90124
   C       15.90148       17.06587        5.05730
   H       15.01363       17.16813        4.39746
   H       15.60401       17.28473        6.10513
   H       16.66611       17.80682        4.74233
   C       16.05447       10.20250        4.33978
   H       16.85161       10.89423        3.99926
   C       16.62013        8.76795        4.35855
   H       17.10846        8.56349        3.37970
   C       17.63500        8.45081        5.47660
   S       15.18499        7.64837        4.42999
   C       14.11201        8.84459        3.53814
   C       14.94501       10.11585        3.28367
   H       15.49032        9.93321        2.32850
   H       14.35533       11.03563        3.09851
   H       22.43270        8.30917        7.35314
   C       22.24541        9.40159        7.26111
   H       21.81808        9.74494        8.22969
   C       23.58647       10.14780        7.11442
   H       23.40056       11.23539        6.97816
   H       24.12474       10.01297        8.07913
   C       24.52060        9.60266        6.02207
   H       24.08653        9.73377        5.01964
   H       24.69097        8.51787        6.19884
   C       25.86973       10.33322        6.04652
   H       25.70156       11.41866        5.86926
   H       26.34193       10.20302        7.04542
   C       26.81327        9.78527        4.96916
   H       26.98896        8.70112        5.14263
   H       26.35173        9.91588        3.96600
   C       28.15526       10.51122        4.99110
   H       28.01081       11.59564        4.79805
   H       28.65003       10.37856        5.97684
   H       28.81673       10.09479        4.20243
   C       21.15222        9.68958        6.20248
   H       20.94966       10.78546        6.17730
   C       21.43879        9.19741        4.78259
   H       22.12911        9.88558        4.26221
   H       21.82884        8.15670        4.80838
   S       19.84684        9.14977        3.88427
   C       18.89308        9.33894        5.43227
   C       19.85171        8.98492        6.56410
   H       19.44389        9.29803        7.55005
   H       20.03316        7.88507        6.58642
   H       12.37166        7.98932        4.40045
   H       12.93717        9.39708        5.32444
   H       13.87386        8.40291        2.54841
   H       17.94346        7.38696        5.37595
   H       17.14303        8.55635        6.46672
   H       18.62352       10.41302        5.52571
*

