# avogadro generated ORCA input file 
# Basic Mode
# 
! wB97X-D3 OPT def2-TZVP def2/J CPCM
%cpcm
  epsilon 3
end
%pal
 nprocs 4
end  

* xyz 0 1
   N       -7.15047        5.11524       -1.36334
   C       -6.97600        6.31366       -2.17504
   H       -5.94034        6.48271       -2.51481
   H       -7.24325        7.20833       -1.57314
   H       -7.64148        6.26927       -3.06321
   C       -8.48863        4.93395       -0.81381
   H       -8.73464        5.77525       -0.13166
   H       -8.63051        3.98411       -0.27176
   H       -9.22811        4.91873       -1.64274
   C       -6.07411        4.17556       -1.12126
   C       -6.11161        3.27236       -0.03402
   C       -4.94347        4.11495       -1.96814
   C       -5.07233        2.36758        0.19505
   H       -6.92453        3.25364        0.67326
   C       -3.90724        3.20741       -1.73493
   H       -4.84342        4.73979       -2.84073
   C       -3.94300        2.32557       -0.64089
   H       -5.14850        1.70414        1.04775
   H       -3.08621        3.18405       -2.43940
   C       -2.84727        1.31552       -0.38152
   C       -3.32418       -0.04329        0.08081
   C       -1.50622        1.61277       -0.55543
   C       -1.02054        3.00454       -0.81235
   C       -0.43807        0.56481       -0.50111
   C        0.27734        3.29318       -0.97627
   H       -1.69507        3.84870       -0.82741
   C        0.86222        0.84586       -0.67492
   H       -0.67875       -0.48050       -0.36820
   C        1.34744        2.24344       -0.92642
   H        0.52118        4.33723       -1.13714
   H        1.51884       -0.00795       -0.63188
   N        2.61851        2.55685       -1.09553
   C        3.02349        3.93959       -1.33619
   H        2.55839        4.31930       -2.27137
   H        4.12517        4.03443       -1.45773
   H        2.73468        4.58029       -0.47529
   C        3.71865        1.59330       -1.06191
   H        3.44500        0.54623       -0.88461
   H        4.42932        1.87369       -0.25513
   H        4.25844        1.61659       -2.03276
   C       -2.66075       -0.77026        1.08438
   C       -4.49863       -0.59632       -0.45826
   C       -3.13459       -2.01311        1.51184
   H       -1.78023       -0.36943        1.56921
   C       -4.97717       -1.83809       -0.03408
   H       -5.04791       -0.07146       -1.23019
   C       -4.30516       -2.58427        0.96135
   H       -2.57545       -2.49199        2.29914
   H       -5.86842       -2.19727       -0.52199
   N       -4.79856       -3.87271        1.40489
   C       -6.17936       -4.29554        1.20438
   H       -6.83046       -3.52190        0.76433
   H       -6.63411       -4.54594        2.18655
   H       -6.20852       -5.19782        0.55731
   C       -3.95053       -4.84419        2.08501
   H       -2.89049       -4.54778        2.15590
   H       -3.95684       -5.79944        1.51792
   H       -4.33837       -5.03410        3.10832
  Cl        3.12754       -0.53932        2.09016
*

