# avogadro generated ORCA input file 
# Basic Mode
# 
! RHF SP def2-SVP 

* xyz 1 1
   O        2.68451       -1.06845       -0.58238
   C        2.16406       -0.03433       -0.97889
   O        1.15452       -0.07673       -1.88563
   C        0.68297       -1.23862       -2.45824
   C        2.63606        1.28944       -0.42921
   S        1.19184        2.07367        0.40652
  Mo        2.08491        4.30442        0.08889
   S        4.09942        3.54154       -0.99814
   C        3.29545        2.19388       -1.48957
   C        3.30771        1.85548       -2.96946
   F        2.01490        1.84078       -3.45671
   F        4.02350        2.79049       -3.69895
   F        3.88973        0.61727       -3.16819
   S       -1.54977        0.58097        2.87194
   C       -0.47467       -0.31887        2.52219
   C       -0.82517       -1.35829        1.45057
   F       -1.21598       -0.70932        0.29109
   F        0.20958       -2.20976        1.11839
   F       -1.87873       -2.14058        1.89369
   C        0.88712       -0.18967        3.20837
   C        1.20020        0.87069        4.24662
   O        2.40939        0.95565        4.85496
   O        0.35879        1.69294        4.56871
   S        1.94625       -1.10842        2.86817
   S        6.30124       -0.80263       -1.30720
   C        6.66451        0.44010       -0.66614
   C        7.41400        1.43560       -1.56114
   F        6.63128        1.75493       -2.65732
   F        7.75557        2.62022       -0.93963
   F        8.58673        0.85416       -2.01390
   C        6.30374        0.67870        0.80146
   C        5.59587       -0.34791        1.66444
   O        5.28810       -0.11305        2.96410
   O        5.28084       -1.43399        1.20741
   S        6.64422        1.93513        1.42361
   H       -0.14122       -0.99054       -3.15783
   H        0.29457       -1.92400       -1.67562
   H        1.49543       -1.74095       -3.02558
   H        3.40955        1.07476        0.33872
   H        3.14925        0.35760        4.68847
   H        5.48573        0.70718        3.43487
*

