# avogadro generated ORCA input file 
# Basic Mode
# 
! wB97X-D3 OPT def2-TZVP def2/J CPCM
%cpcm
  epsilon 3
end
%pal
 nprocs 4
end 

* xyz 0 1
   C       -0.83406        1.63562        0.15687
   C       -0.04425        2.80370        0.12231
   C        1.34206        2.67011        0.12683
   C        1.95066        1.41475        0.16452
   C       -0.21335        0.36550        0.19500
   C        1.18622        0.24927        0.19900
   H       -0.49557        3.78752        0.09279
   S        2.50856        3.91214        0.09021
   C        3.33435        1.52765        0.16167
   C        3.79183        2.81544        0.12342
   S        4.61763        0.43095        0.19488
   C        5.17553        2.92834        0.12057
   C        5.78413        1.67298        0.15826
   C        5.93996        4.09382        0.08608
   C        7.33953        3.97759        0.09008
   C        7.96024        2.70747        0.12822
   C        7.17043        1.53939        0.16277
   C       -2.33096        1.72669        0.15358
   H       -2.67570        2.78222        0.12196
   H       -2.73544        1.25263        1.07255
   H       -2.73475        1.19867       -0.73578
   C        9.45714        2.61639        0.13150
   H        9.80189        1.56087        0.16313
   H        9.86094        3.14441        1.02087
   H        9.86162        3.09045       -0.78746
   H        7.62175        0.55557        0.19230
   H        5.46951        5.06842        0.05682
   H        7.94334        4.87629        0.06349
   H        1.65668       -0.72533        0.22826
   H       -0.81716       -0.53321        0.22159
*

