# avogadro generated ORCA input file 
# Basic Mode
# 
! BP RI OPT def2-TZVP def2-TZVP/J 

* xyz 0 1
   C       -3.07016        2.55533       -0.31753
   C       -1.74386        3.29836       -0.45757
   H       -3.36305        2.44350        0.74340
   H       -3.07434        1.60264       -0.87707
   H       -3.86501        3.17609       -0.78377
   C       -1.45647        0.45818        0.94527
   C       -0.29655        1.43382        0.76247
   H       -2.24178        0.86517        1.60741
   H       -1.06996       -0.44479        1.46472
   H       -1.84329        0.10011       -0.02735
   N       -0.48332        2.73723        0.08276
   H       -1.91846        4.27899        0.03783
   H       -1.60849        3.46449       -1.54889
   H        0.46564        0.85935        0.19094
   H        0.09201        1.63024        1.78587
   C        0.71170        3.56397       -0.07175
   C        0.66923        4.82273       -0.73412
   C        1.97671        3.15178        0.43327
   C        1.81193        5.61303       -0.88094
   H       -0.23968        5.22601       -1.15327
   C        3.03604        5.18097       -0.37458
   H        1.73814        6.56565       -1.39155
   C        3.11847        3.94538        0.28587
   H        2.11253        2.21499        0.95185
   C        4.25797        6.00403       -0.51542
   O        4.30641        3.51616        0.78522
   C        5.42188        5.55646       -0.01548
   H        4.20805        6.96673       -1.01760
   C        5.45185        4.24015        0.66964
   C        6.59902        3.76603        1.17583
   C        6.66242        6.35016       -0.11681
   C        7.81163        5.87914        0.38661
   H        6.64905        7.32646       -0.59337
   C        7.91367        4.51495        1.06341
   H        6.59860        2.80486        1.68131
   H        8.70116        6.49439        0.30696
   N        8.93317        3.64405        0.43919
   C        8.71839        3.41666       -1.01220
   C       10.29365        4.10861        0.78581
   C        8.68689        1.92029       -1.30767
   H        8.50859        1.75790       -2.39155
   H        7.86461        1.44066       -0.73523
   H        9.64235        1.43235       -1.03179
   H        9.50147        3.91375       -1.62664
   H        7.73951        3.82218       -1.35136
   C       11.35905        3.05140        0.50221
   H       11.42873        2.83441       -0.58277
   H       11.12770        2.11768        1.05721
   H       12.34932        3.42816        0.83460
   H       10.33985        4.32479        1.87700
   H       10.54741        5.04106        0.23698
  Cl       11.49895        7.94954       -0.21158
*

