# avogadro generated ORCA input file 
# Basic Mode
# 
! wB97X-D3 OPT def2-TZVP def2/J CPCM
%cpcm
  epsilon 3
end
%pal
 nprocs 4
end
 

* xyz 0 1
   N       -0.95971       -0.91434       -0.09559
   C        0.30126       -0.91434       -0.09559
   C        1.82126       -0.91434       -0.09559
   C        2.51846       -1.05884        1.12920
   N        3.10563       -1.17565        2.12113
   C        2.51204       -0.78130       -1.29619
   C        2.51485       -0.61371       -2.75091
   C        1.82291       -0.46863       -3.95660
   C        2.58363       -0.31977       -5.26409
   N        3.21470       -0.19627       -6.34877
   C        0.30295       -0.45811       -3.95621
   N       -0.95799       -0.44939       -3.95589
   C        3.78398       -0.70769       -2.02107
   C        5.18811       -0.71950       -2.02718
   C        5.90532       -0.58591       -3.24143
   N        6.47471       -0.47549       -4.24439
   C        5.94714       -0.87890       -0.71994
   N        6.57682       -1.01114        0.36452
*

