# avogadro generated ORCA input file 
# Basic Mode
# 
! wB97X-D3 OPT def2-TZVP def2/J CPCM
%cpcm
  epsilon 3
end
%pal
 nprocs 4
end

* xyz 0 1
   C        4.08551        2.67564        0.50903
   C        3.39664        3.99799        0.18638
   C        3.19296        1.52197        0.06174
   H        4.24814        2.60811        1.60734
   H        5.07130        2.61900       -0.00077
   N        2.08004        4.04979        0.85047
   H        3.28444        4.10160       -0.91784
   H        4.04369        4.82629        0.55065
   N        1.87882        1.63359        0.71788
   H        3.68920        0.56889        0.35010
   H        3.07256        1.53710       -1.04566
   C        1.21815        2.92738        0.39530
   C        1.03675        0.43114        0.48634
   C        1.43893        5.35105        0.58664
   C        0.10116        5.42149        1.31407
   H        1.27967        5.49757       -0.50684
   H        2.08294        6.17754        0.96028
   C       -0.78295        4.27317        0.84079
   H       -0.39549        6.39526        1.11417
   H        0.27336        5.32709        2.40899
   C       -0.99471        1.83617        0.79277
   C       -0.33374        0.77837       -0.09541
   N       -0.10092        2.98922        1.07918
   H       -1.01150        4.39206       -0.24314
   H       -1.73871        4.31200        1.40907
   H       -1.25604        1.37019        1.76710
   H       -1.95092        2.14229        0.31013
   H        1.06732        3.00917       -0.70943
   H        0.89026       -0.06963        1.46758
   H        1.52581       -0.30941       -0.18651
   H       -0.20102        1.18457       -1.12134
   H       -0.97507       -0.12574       -0.17435
*

