# avogadro generated ORCA input file 
# Basic Mode
# 
! wB97X-D3 OPT def2-TZVP def2/J CPCM
%cpcm
  epsilon 3
end
%pal
 nprocs 4
end

* xyz 0 1
   C       -7.19042       -2.14040        0.00062
   C       -6.97821       -3.52681        0.00084
   C       -6.09935       -1.26044        0.00031
   H       -8.19968       -1.74883        0.00063
   C       -5.67296       -4.03757        0.00078
   H       -7.82431       -4.20188        0.00100
   C       -4.79713       -1.79756        0.00006
   H       -6.30188       -0.20184        0.00003
   C       -4.59047       -3.13630        0.00029
   H       -5.52697       -5.10887        0.00089
   N       -3.55799       -1.12222       -0.00066
   N       -3.20585       -3.44360       -0.00010
   C       -2.43547       -2.15153       -0.00369
   C       -0.77207       -2.05872       -0.00064
   H       -2.06587       -1.24392       -0.00610
   C        1.39540       -0.73019        0.00070
   C        0.08748       -3.19257        0.00060
   C        2.14853       -1.89354        0.00116
   C        0.00489       -0.79551       -0.00000
   H       -0.50514        0.16207       -0.00070
   H        1.87975        0.23893        0.00056
   C        1.48819       -3.11615        0.00139
   H        2.06767       -4.03280        0.00188
   H       -0.22599       -4.18148        0.00063
   C        3.64931       -1.84279        0.00123
   H        4.02334       -0.79634        0.00081
   H        4.04174       -2.35346       -0.90323
   H        4.04175       -2.35292        0.90595
   C       -3.49692        0.37097        0.00072
   H       -4.48463        0.85914        0.00212
   H       -2.95459        0.71957       -0.90371
   H       -2.95271        0.71786        0.90464
   C       -2.85997       -4.86201        0.00048
   H       -1.83838       -5.16712       -0.00182
   H       -3.29866       -5.34222       -0.90042
   H       -3.29604       -5.34113        0.90321
*

