# avogadro generated ORCA input file 
# Basic Mode
# 
! wB97X-D3 OPT def2-TZVP def2/J CPCM
%cpcm
  epsilon 3
end
%pal
 nprocs 4
end

* xyz 0 1
   C      -16.10159       -1.28317       -0.00221
   C      -16.21081       -2.69180       -0.00810
   C      -14.83392       -0.68728        0.00707
   H      -16.99506       -0.66566        0.00085
   C      -15.04923       -3.50110       -0.04520
   H      -17.19713       -3.14221        0.00157
   C      -13.70773       -1.51773       -0.01704
   H      -14.73547        0.39631        0.02511
   C      -13.78686       -2.87883       -0.08069
   H      -15.14199       -4.57682       -0.05479
   N      -12.37621       -1.14161        0.01350
   N      -12.47557       -3.43642       -0.17995
   C      -11.50560       -2.31561       -0.00441
   H      -12.15241       -0.14513        0.00523
   H      -12.30624       -4.45646       -0.17243
   C       -9.93695       -2.05145       -0.11022
   H      -11.28614       -2.67451        1.00901
   C       -8.97650       -3.10610       -0.10343
   C       -9.36090       -0.70947       -0.05880
   C       -7.58432       -2.85552       -0.06579
   H       -9.28489       -4.13912       -0.09282
   C       -7.08874       -1.55614       -0.03602
   H       -6.86800       -3.66746       -0.04323
   C       -7.97300       -0.49916       -0.02959
   H       -6.02019       -1.35835       -0.00517
   H       -7.57304        0.51251        0.01669
   O      -10.10903        0.40556       -0.00673
   H       -9.74563        1.30377        0.04679
*

