# avogadro generated ORCA input file 
# Basic Mode
# 
! wB97X-D3 OPT def2-TZVP def2/J CPCM
%cpcm
  epsilon 3
end
%pal
 nprocs 4
end

* xyz 0 1
   C      -18.44638        0.92326       -0.00000
   H      -17.33698        0.92326       -0.00000
   H      -18.81618        0.54377        0.97468
   H      -18.81619        0.26890       -0.81599
   H      -18.81619        1.95710       -0.15870
   C        0.67109        0.07485        1.16553
   C       -0.64913        0.00016        0.67474
   C        1.56735       -0.99016        0.96464
   H        0.99696        0.95815        1.69926
   C        1.10683       -2.11513        0.27019
   H        2.57662       -0.92163        1.34353
   C       -1.08389       -1.14062       -0.02072
   H       -1.33042        0.82584        0.83372
   C       -0.17210       -2.18212       -0.20163
   H       -2.09460       -1.20505       -0.40152
   N        1.79314       -3.30498       -0.06938
   N       -0.36416       -3.41004       -0.86022
   C        0.87002       -4.18581       -0.78616
   C        3.18591       -3.59362        0.21011
   H        3.68190       -2.75558        0.73555
   H        3.72624       -3.77110       -0.74286
   H        3.26524       -4.49058        0.85715
   C       -1.57322       -3.80914       -1.54918
   H       -1.79919       -3.08183       -2.35672
   H       -2.42329       -3.83676       -0.83599
   H       -1.44781       -4.81583       -2.00097
   C        0.69319       -5.51377       -0.04943
   H        1.22402       -4.36684       -1.82481
   C        1.66815       -6.53403       -0.19096
   C        1.49227       -7.75550        0.49825
   C       -0.42583       -5.74552        0.77873
   C       -0.57818       -6.95656        1.45131
   H       -1.18518       -4.99044        0.92311
   C        0.37700       -7.95795        1.31089
   H       -1.44067       -7.11844        2.08508
   H        0.25237       -8.89781        1.83348
   H        2.19344       -8.57011        0.42141
   O        2.73246       -6.29612       -1.00818
   C        3.86147       -7.06238       -1.23304
   H        3.91881       -7.97670       -0.61795
   H        4.75780       -6.45042       -1.00316
   H        3.89718       -7.34973       -2.30381
*

