# avogadro generated ORCA input file 
# Basic Mode
# 
! wB97X-D3 OPT def2-TZVP def2/J CPCM
%cpcm
  epsilon 3
end
%pal
 nprocs 4
end
 

* xyz 0 1
   C       -5.16769        3.58406        0.00476
   C       -3.77726        2.64967        0.00223
   C       -3.86477        1.16971        0.00155
   C       -2.37634        3.13160        0.00027
   C       -2.08629        4.50922       -0.00354
   C       -1.07404        2.36759        0.00091
   F       -2.99804        5.46583       -0.01014
   F       -1.02407        1.00526        0.00448
   C       -0.83524        5.09923       -0.00109
   C        0.26742        3.01306        0.00289
   C        0.40962        4.43685        0.00538
   C        1.57892        5.24525        0.01606
   C        1.42701        6.70934        0.01483
   C        3.07844        4.98771        0.02587
   F       -0.94067        6.44847       -0.00172
   F        1.40516        2.24873        0.00862
   O        3.70264        3.78356       -0.01113
   C        5.09820        3.77968        0.00070
   H        5.48046        4.36511       -0.87045
   H        5.52612        2.76374       -0.03862
   H        5.46397        4.29299        0.92306
   O        3.80533        5.98599        0.05902
   N       -3.78830        0.00604        0.00072
   N        1.31316        7.86268        0.01388
   O       -5.05681        4.78528        0.01616
   O       -6.52809        3.23516        0.00041
   C       -7.61165        4.20654        0.00437
   H       -7.34575        5.30600        0.00801
   H       -8.29723        4.10798        0.86819
   H       -8.29695        4.11340       -0.85985
*

