# avogadro generated ORCA input file 
# Basic Mode
# 
! wB97X-D3 OPT def2-TZVP def2/J CPCM
%cpcm
  epsilon 3
end
%pal
 nprocs 8
end 

* xyz 0 1
   F        0.97706       -0.15118       -0.17012
   C        2.33519       -0.17475       -0.13988
   C        2.95161        1.07471       -0.11490
   F        2.12493        2.15255       -0.12367
   C        4.35611        1.21103       -0.08208
   C        5.11773        0.01368       -0.07578
   F        6.47566        0.07502       -0.04461
   C        4.51117       -1.26798       -0.10078
   C        5.44962       -2.46138       -0.09034
   C        3.07569       -1.39169       -0.13406
   C        2.40283       -2.60230       -0.15991
   C        3.02374       -3.90702       -0.15719
   N        3.45692       -4.98098       -0.15715
   C        0.95766       -2.70934       -0.19311
   N       -0.18902       -2.86801       -0.22044
   C        4.95046        2.45106       -0.05690
   C        4.16447        3.75206       -0.06211
   N        3.51242        4.83134       -0.06643
   C        6.38381        2.64962       -0.02229
   N        7.51862        2.87694        0.00576
   H        6.52488       -2.19513       -0.06391
   H        5.31104       -3.05944       -1.01467
   H        5.27008       -3.07566        0.81614
*

