# avogadro generated ORCA input file 
# Basic Mode
# 
! wB97X-D3 OPT def2-TZVP def2/J CPCM
%cpcm
  epsilon 3
end
%pal
 nprocs 4
end 

* xyz 0 1
   C        1.00267        2.58484        0.69937
   C        0.22199        1.32048        0.44847
   H        0.67918        3.05787        1.64849
   H        0.83457        3.29456       -0.13945
   H        2.09487        2.39123        0.75786
   C       -1.96477        2.64116        0.42069
   C       -1.19812        1.34888        0.31133
   H       -3.05499        2.48714        0.27396
   H       -1.61678        3.34625       -0.36452
   H       -1.80796        3.09867        1.41867
   C        0.91762        0.09871        0.30084
   C       -1.89707        0.15668        0.02162
   C        0.18926       -1.05147       -0.02041
   H        1.99515        0.07511        0.37626
   C       -1.16539       -1.01769       -0.15666
   H       -2.97044        0.15938       -0.11745
   N        0.66356       -2.34455       -0.35030
   N       -1.63112       -2.27489       -0.59422
   C       -0.46356       -3.09453       -0.90877
   C       -0.52733       -4.57410       -0.53640
   H       -0.37291       -3.09935       -2.01741
   C        2.04569       -2.77788       -0.30260
   H        2.13040       -3.67486        0.34700
   H        2.70539       -2.00154        0.13051
   H        2.40483       -3.01442       -1.32338
   C       -3.00849       -2.56169       -0.93562
   H       -3.38123       -1.81176       -1.66256
   H       -3.63312       -2.52027       -0.01699
   H       -3.10238       -3.56758       -1.39313
   C        0.44623       -5.41512       -1.11049
   C       -1.61372       -6.56099        0.37436
   C        0.38639       -6.79829       -0.96254
   H        1.23713       -5.00526       -1.72329
   C       -0.65258       -7.38400       -0.23659
   H        1.13528       -7.41504       -1.44531
   C       -1.55368       -5.16521        0.22788
   H       -2.42624       -7.00110        0.93909
   H       -2.32824       -4.56819        0.68583
   C       -0.73209       -8.88079       -0.15604
   H       -0.81844       -9.29588       -1.18488
   H       -1.61685       -9.21539        0.42434
   H        0.18613       -9.28760        0.31565
*

