# avogadro generated ORCA input file 
# Basic Mode
# 
! wB97X-D3 OPT def2-TZVP def2/J CPCM
%cpcm
  epsilon 3
end
%pal
 nprocs 4
end 

* xyz 0 1
   N        4.48546        5.42491        0.23650
   C        3.05434        5.31058        0.34892
   N        2.49416        4.14263        0.34991
   C        5.32557        4.22810        0.29071
   C        4.57011        3.02667        0.86625
   C        3.23456        2.91404        0.16007
   H        3.40257        2.74833       -0.92673
   H        2.64644        2.06133        0.55948
   H        6.19773        4.39678        0.96023
   H        5.70355        4.01532       -0.73298
   H        5.17387        2.10010        0.75990
   H        4.37289        3.19919        1.94793
   C        5.14574        6.70581        0.03416
   C        5.02898        7.61099        1.26664
   H        4.77779        7.20949       -0.88561
   H        6.23522        6.52801       -0.11172
   C        3.67463        8.30451        1.43160
   H        5.76961        8.43183        1.14276
   H        5.30608        7.04367        2.18186
   C        2.45936        7.39797        1.64625
   H        3.49063        8.94411        0.53980
   H        3.75060        8.97865        2.31272
   C        2.14923        6.51137        0.44071
   H        1.59471        8.08552        1.77704
   H        2.55059        6.79062        2.57323
   H        2.18675        7.11035       -0.49456
   H        1.10467        6.14286        0.55303
*

