# avogadro generated ORCA input file 
# Basic Mode
# 
! wB97X-D3 OPT def2-TZVP def2/J CPCM
%cpcm
  epsilon 3
end
%pal
 nprocs 4
end

* xyz 0 1
   N      -10.72019        6.50253        0.00074
   N       -8.95433        2.82477        0.00174
   C       -9.67304        6.00316       -0.00043
   C       -8.62865        3.93996       -0.00058
   C       -8.37219        5.36519       -0.00032
   C       -7.14421        6.02025        0.00164
   C       -7.06281        7.45132        0.00177
   C       -5.92197        5.28973        0.00095
   C       -5.81266        8.10703       -0.00044
   C       -4.66280        5.94975       -0.00019
   C       -4.59378        7.38041       -0.00122
   C       -3.38687        8.05419       -0.00184
   C       -3.19381        9.48254       -0.00060
   C       -2.06727        7.46166       -0.00067
   N       -2.94035       10.61361        0.00041
   N       -0.99431        7.02028        0.00027
   F       -5.78835        9.47172       -0.00024
   F       -5.95778        3.92299        0.00062
   C       -8.25968        8.28797        0.00052
   C       -3.45850        5.11189       -0.00008
   N       -9.16375        9.01759       -0.00054
   N       -2.50593        4.44376       -0.00002
*

