# avogadro generated ORCA input file 
# Basic Mode
# 
! wB97X-D3 OPT def2-TZVP def2/J CPCM
%cpcm
  epsilon 3
end
%pal
 nprocs 4
end

* xyz 0 1
   S       -1.66682        2.93988       -0.26681
   H       -1.00422        1.71719        0.23553
   H       -2.63794        1.94353       -0.94035
   S       -1.85692       -0.05681       -0.34009
   H       -1.04995        1.04965        0.21711
   H       -2.69213        1.08528       -0.96135
   S        0.16083        1.97685        1.02557
   S        0.06268        0.59453        0.99081
   H        1.00239        1.24494        0.10788
   H        1.46186        1.22323       -0.37453
   S        2.27551        1.87213       -1.37605
   S        2.39918        0.49018       -1.19291
   H        3.46075        1.70998       -0.59090
   H        3.51891        1.04916       -0.50285
   S        4.12439        2.98802       -0.25752
   S        4.37163        0.01946        0.12741
   H        5.15324        2.08173        0.45667
   H        5.22390        1.23147        0.56679
*

