# avogadro generated ORCA input file 
# Basic Mode
# 
! wB97X-D3 OPT def2-TZVP def2/J CPCM
%cpcm
  epsilon 3
end
%pal
 nprocs 4
end
 

* xyz 0 1
   C        3.67579       -0.50227        1.18010
   O        4.19023        0.61679        0.55878
   C        4.18396        0.85615       -0.77824
   C        4.74799        2.04756       -1.24110
   C        4.76683        2.34578       -2.60584
   C        4.21994        1.45333       -3.55360
   N        4.23770        1.75905       -4.96876
   C        4.16032        3.13393       -5.41638
   C        4.79411        3.54929       -6.60798
   C        4.72110        4.87634       -7.03809
   C        4.01482        5.82845       -6.29911
   O        3.97558        7.10451       -6.76287
   C        3.32866        8.16262       -6.15895
   C        3.37573        5.43114       -5.11070
   C        3.44921        4.10463       -4.67725
   C        4.33333        0.68802       -5.93774
   C        3.71493        0.78693       -7.19682
   C        3.80376       -0.24694       -8.13201
   C        4.52326       -1.43358       -7.85711
   C        4.62397       -2.55581       -8.87255
   C        3.89656       -2.52599      -10.08553
   C        3.98836       -3.56189      -11.01819
   C        4.81469       -4.67706      -10.79223
   N        4.91106       -5.74788      -11.76138
   C        3.76310       -6.09259      -12.57377
   C        2.44875       -5.93706      -12.08141
   C        1.34161       -6.27204      -12.86461
   C        1.50733       -6.76853      -14.15979
   O        0.39685       -7.07820      -14.87800
   C        0.38117       -7.57836      -16.16346
   C        2.80980       -6.92757      -14.66666
   C        3.91898       -6.59522      -13.88423
   C        6.15530       -6.47208      -11.91653
   C        7.39873       -5.84005      -11.69621
   C        8.59894       -6.53841      -11.84840
   C        8.59917       -7.88471      -12.22113
   O        9.79441       -8.51597      -12.35468
   C        9.97394       -9.83510      -12.71590
   C        7.36916       -8.53028      -12.44238
   C        6.16726       -7.83313      -12.29288
   C        5.54402       -4.71406       -9.59049
   C        5.45000       -3.68305       -8.65267
   C        5.14436       -1.52270       -6.58920
   C        5.04811       -0.48935       -5.65420
   C        3.65449        0.25108       -3.07479
   C        3.63461       -0.04389       -1.70913
   H        3.82811       -0.41101        2.27502
   H        4.20050       -1.41452        0.82433
   H        2.58624       -0.58584        0.98001
   H        5.17843        2.74935       -0.53753
   H        5.22767        3.27373       -2.91655
   H        5.36525        2.85231       -7.20643
   H        5.22138        5.16680       -7.95360
   H        3.47637        9.07510       -6.77212
   H        3.75050        8.34368       -5.14732
   H        2.23942        7.95653       -6.08738
   H        2.81633        6.13860       -4.51347
   H        2.93079        3.83918       -3.76573
   H        3.14040        1.66466       -7.46223
   H        3.29825       -0.07857       -9.06690
   H        3.23819       -1.71608      -10.34724
   H        3.41588       -3.47522      -11.93236
   H        2.26976       -5.57064      -11.07950
   H        0.34555       -6.14670      -12.45846
   H       -0.67095       -7.73097      -16.47994
   H        0.90773       -8.55580      -16.20158
   H        0.86011       -6.85893      -16.86137
   H        2.97830       -7.30546      -15.66612
   H        4.90187       -6.71920      -14.31857
   H        7.45064       -4.79525      -11.42086
   H        9.53757       -6.02602      -11.67746
   H       11.06001      -10.05928      -12.74059
   H        9.55174      -10.01713      -13.72719
   H        9.49069      -10.50572      -11.97376
   H        7.32858       -9.57270      -12.72843
   H        5.24406       -8.37201      -12.45841
   H        6.18436       -5.55510       -9.35905
   H        6.04621       -3.80086       -7.76466
   H        5.71188       -2.38326       -6.28054
   H        5.55509       -0.61260       -4.70618
   H        3.20793       -0.46205       -3.75471
   H        3.18625       -0.97486       -1.38916
*

