# avogadro generated ORCA input file 
# Basic Mode
# 
! wB97X-D3 OPT def2-TZVP def2/J CPCM
%cpcm
  epsilon 3
end
%pal
 nprocs 8
end 

* xyz 0 1
   O        1.51120       -0.25959        0.33565
   C        2.73033       -0.24056        0.23744
   C        3.44568        1.05737        0.13897
   C        2.73404        2.27157        0.15735
   C        3.41049        3.48959        0.06461
   C        4.80055        3.51124       -0.04723
   C        5.52048        2.31495       -0.06684
   C        4.85297        1.07926        0.02574
   C        5.61474       -0.19570        0.00530
   O        6.83388       -0.17649       -0.09280
   C        4.89914       -1.49386        0.10371
   C        5.61111       -2.70766        0.08550
   C        4.93596       -3.92926        0.17774
   S        5.85608       -5.46882        0.15595
   O        5.05696       -6.60233       -0.50464
   O        7.07860       -5.38930       -0.77079
   O        6.44071       -6.11972        1.63236
   C        3.54358       -3.94705        0.29127
   C        2.82513       -2.75033        0.31048
   C        3.49238       -1.51545        0.21703
   H        1.74671       -2.79201        0.39891
   H        6.69069       -2.70768        0.00003
   H        6.59894        2.35729       -0.15442
   H        5.32184        4.45714       -0.11891
   H        1.65467        2.28028        0.24340
   H        2.85544        4.41874        0.07952
   H        3.01373       -4.88819        0.36520
  Na        7.55987       -8.51763       -0.11909
*

