# avogadro generated ORCA input file 
# Basic Mode
# 
! wB97X-D3 OPT def2-TZVP def2/J CPCM

%cpcm
  epsilon 3
end

%pal
 nprocs 4
end 

* xyz -10 1
  Cs       -0.19125        1.39320       -1.92969
  Na        3.42651       -0.35777       -2.66433
   O        1.35943        0.03620        1.27903
   C        2.51060        0.02444        0.86390
   C        3.20707        1.29988        0.56804
   C        2.58036        2.47895        0.75255
   C        3.27425        3.75423        0.45725
   C        4.53615        3.74127        0.00265
   C        5.23573        2.45168       -0.20398
   C        4.61406        1.28544        0.06137
   C        5.31597       -0.00436       -0.14619
   O        6.46735       -0.01635       -0.56073
   C        4.61899       -1.27963        0.14874
   C        5.24505       -2.45839       -0.03732
   C        4.55178       -3.73427        0.25646
   S        5.40485       -5.28800        0.00026
   O        4.62366       -6.47426        0.58588
   O        5.47384       -5.66934       -1.48577
   O        7.00320       -5.46692        0.59942
   C        3.28927       -3.72061        0.71141
   C        2.59017       -2.43141        0.91947
   C        3.21219       -1.26527        0.65535
*

