# avogadro generated ORCA input file 
# Basic Mode
# 
! RHF SP def2-SVP 

* xyz 0 1
   C        4.70450       -3.46856       -0.41119
   C        5.17260       -2.31821        0.24657
   C        5.71907       -4.16527       -1.08321
   C        6.97257       -3.57594       -0.96977
   S        6.83003       -2.18652       -0.02997
   H        5.53363       -5.06933       -1.64759
   C        3.27544       -3.93563       -0.44819
   H        2.63166       -3.15953       -0.90763
   H        2.90190       -4.17068        0.56523
   H        3.17889       -4.85877       -1.05786
   C        8.21374       -4.06875       -1.59076
   C        8.33857       -5.21597       -2.36496
   C        9.63756       -5.43249       -2.85064
   C       10.54892       -4.44052       -2.45297
   C        9.96171       -6.61664       -3.71167
   H       10.32861       -6.27382       -4.70115
   H        9.06227       -7.24650       -3.87916
   H       10.73212       -7.24288       -3.21607
   S        9.71629       -3.32120       -1.50179
   H        7.51349       -5.88106       -2.58231
   C       11.98765       -4.32282       -2.78761
   C       12.82478       -3.28478       -2.35400
   C       14.12231       -3.43043       -2.84010
   C       14.30789       -4.51128       -3.63090
   S       12.89477       -5.39916       -3.74820
   H       12.51414       -2.46829       -1.71588
   S       15.57947       -2.44496       -2.57627
   C       16.27152       -3.28098       -4.06967
   C       15.67626       -4.70822       -4.13831
   H       15.71681       -5.08802       -5.18143
   H       16.17260       -5.41620       -3.44046
   C       -7.19240        3.35963        0.80639
   H       -8.06872        2.82290        0.38664
   H       -7.51572        4.34973        1.19037
   H       -6.45429        3.52100       -0.00776
   C       -6.59409        2.55653        1.92129
   C       -5.27138        2.08899        1.89568
   H       -4.59298        2.27343        1.07239
   C       -4.91998        1.36465        3.03018
   C       -3.60938        0.74537        3.28154
   S       -2.30091        0.78495        2.23055
   C       -1.24924       -0.11969        3.18883
   C        0.12937       -0.46680        2.77309
   S        1.25970       -1.39405        3.64581
   C        2.44119       -1.31112        2.45842
   C        3.77375       -1.93001        2.33528
   H        4.43686       -1.72132        3.20198
   H        3.60452       -3.02099        2.27835
   C        4.37828       -1.31645        1.04386
   S        3.07516       -0.51505        0.00808
   C        1.98587       -0.60673        1.39898
   C        0.69441       -0.10907        1.54329
   H        0.18783        0.46039        0.77554
   C       -1.92843       -0.46551        4.36857
   C       -1.35422       -1.27783        5.48999
   H       -0.46674       -0.76252        5.91208
   H       -2.09661       -1.41246        6.30511
   H       -1.06683       -2.28291        5.11752
   C       -3.24644        0.02286        4.41112
   H       -3.91731       -0.15249        5.24256
   S       -6.24574        1.30222        4.06683
   C       -7.27964        2.19345        3.08307
   C       -8.69646        2.51586        3.43913
   H       -9.26388        1.57256        3.57992
   H       -8.71593        3.09714        4.38405
   H       -9.19165        3.11161        2.64556
   C       18.05384       -0.69741       -4.18725
   H       17.37431       -0.55506       -5.05326
   H       17.50338       -0.49282       -3.24766
   H       18.88217        0.03832       -4.26521
   C       18.58273       -2.10090       -4.18517
   C       19.95563       -2.38357       -4.26298
   H       20.71637       -1.61530       -4.31992
   C       20.24288       -3.74265       -4.26933
   C       21.58509       -4.33849       -4.35602
   S       23.02388       -3.47947       -4.46816
   C       24.04831       -4.81701       -4.53484
   C       25.52132       -4.70704       -4.65022
   S       26.63755       -5.99272       -4.71161
   C       27.97456       -4.99274       -4.85078
   C       29.42623       -5.24131       -4.89865
   H       29.74501       -5.45820       -3.85614
   H       29.72049       -6.07083       -5.57624
   C       29.99087       -3.90465       -5.43136
   H       29.88907       -3.89387       -6.53997
   C       31.45590       -3.71827       -5.05118
   H       31.56878       -3.69712       -3.94634
   H       32.06528       -4.55049       -5.46311
   H       31.83398       -2.76108       -5.46814
   S       28.93133       -2.51953       -4.83461
   C       27.59682       -3.69437       -4.80628
   C       26.22261       -3.49442       -4.70587
   H       25.76479       -2.51537       -4.66047
   C       23.25369       -5.97396       -4.46693
   C       23.76949       -7.38116       -4.49665
   H       24.44704       -7.55210       -3.63464
   H       22.93621       -8.11262       -4.43020
   H       24.31231       -7.56313       -5.44729
   C       21.87925       -5.69555       -4.36743
   H       21.12102       -6.46628       -4.30748
   S       18.79759       -4.59739       -4.17949
   C       17.78132       -3.24885       -4.12692
   H        5.02724       -0.47165        1.36418
   H       15.87997       -2.71067       -4.94198
*

