# avogadro generated ORCA input file 
# Basic Mode
# 
! wB97X-D3 OPT def2-TZVP def2/J CPCM
%cpcm
  epsilon 3
end
%pal
 nprocs 4
end 

* xyz 0 1
   C       -4.61596        3.22036       -0.00022
   C       -3.37260        2.44910       -0.00022
   C       -3.57605        1.02870        0.00080
   C       -2.13142        3.02805       -0.00013
   C       -2.04936        4.41937       -0.00086
   C       -0.89860        2.30060        0.00116
   F       -3.14415        5.22646       -0.00188
   F       -0.90241        0.94019        0.00161
   C       -0.85345        5.07040        0.00069
   C        0.36163        2.97440        0.00356
   C        0.41565        4.40611        0.00426
   C        1.55948        5.20595        0.01193
   C        1.38251        6.65349        0.01232
   C        3.05127        4.95501        0.02214
   F       -1.02164        6.41561        0.00110
   F        1.49085        2.21423        0.00659
   O        3.70769        3.76426       -0.01081
   C        5.10151        3.84802        0.00278
   H        5.42999        4.48120       -0.85964
   H        5.61793        2.87417       -0.04035
   H        5.41608        4.40436        0.92124
   O        3.75497        5.96904        0.05907
   N       -5.59264        3.84454        0.00006
   N       -3.76626       -0.11088        0.00159
   N        1.23572        7.79974        0.01258
*

