# avogadro generated ORCA input file 
# Basic Mode
# 
! wB97X-D3 OPT def2-TZVP def2/J CPCM
%cpcm
  epsilon 3
end
%pal
 nprocs 4
end 

* xyz 0 1
   C       -0.91528       10.43011        1.28324
   C        0.74973        8.87880        2.05632
   N       -0.67677        9.23817        2.11709
   H        0.95935        8.01456        2.72281
   H        1.37639        9.72282        2.41730
   H        1.05597        8.61798        1.01828
   H       -0.24197       11.25858        1.59341
   H       -1.94561       10.81219        1.42378
   H       -0.74225       10.21180        0.20603
   C       -1.50108        8.08394        1.69332
   C       -2.99756        8.29718        1.98344
   H       -1.18558        7.18621        2.27211
   H       -1.34614        7.86439        0.61204
   C       -3.81080        7.03825        1.62845
   H       -3.37154        9.14122        1.36991
   H       -3.10942        8.51740        3.06741
   N       -5.28741        7.07744        1.85113
   H       -3.39353        6.19712        2.22626
   H       -3.62878        6.82352        0.55124
   C       -5.99167        8.17054        2.35664
   C       -5.98039        5.91891        1.51773
   O       -5.41610        9.20094        2.66054
   O       -5.37439        4.95306        1.07425
   C       -7.39063        8.11092        2.52839
   C       -7.37662        5.83212        1.67998
   C       -8.08435        6.93543        2.18758
   C       -8.11314        9.20756        3.03544
   C       -8.08128        4.66193        1.34348
   C       -9.49562        9.13643        3.19973
   H       -7.61232       10.12864        3.30792
   C       -9.49269        6.86314        2.35494
   C       -9.46391        4.59091        1.50741
   H       -7.56606        3.79385        0.95045
   C      -10.20036        7.96663        2.86223
   H      -10.01081       10.00457        3.59266
   C      -10.18664        5.68798        2.01333
   H       -9.96482        3.66999        1.23457
   C      -11.59686        7.88106        3.02178
   C      -11.58616        5.62978        2.18188
   N      -12.29048        6.72395        2.68493
   O      -12.16228        4.60006        1.87668
   O      -12.20284        8.84747        3.46408
   C      -13.76818        6.76709        2.89887
   C      -14.58461        5.51451        2.52904
   H      -14.17746        7.61256        2.30159
   H      -13.95740        6.97792        3.97558
   C      -16.08323        5.73738        2.80046
   H      -14.22357        4.66470        3.14236
   H      -14.46115        5.29889        1.44539
   N      -16.90956        4.59130        2.35921
   H      -16.38385        6.64019        2.22157
   H      -16.25186        5.95337        3.88038
   C      -18.33366        4.96377        2.39026
   H      -18.52145        5.82912        1.71866
   H      -18.65882        5.22870        3.42145
   H      -18.96048        4.12523        2.01702
   C      -16.69918        3.39736        3.19763
   H      -17.37108        2.57408        2.87106
   H      -16.89619        3.61643        4.27056
   H      -15.66841        3.00833        3.08174
*

