# avogadro generated ORCA input file 
# Basic Mode
# 
! wB97X-D3 OPT def2-TZVP def2/J CPCM
%cpcm
  epsilon 3
end
%pal
 nprocs 4
end 

* xyz 0 1
   C       -8.57485        2.32165        0.41057
   C       -8.50373        1.08241       -0.26026
   C       -7.40058        2.98862        0.79920
   H       -9.53959        2.76173        0.62683
   C       -7.25799        0.49597       -0.54784
   H       -9.41509        0.57844       -0.55475
   C       -6.17733        2.38457        0.49722
   H       -7.45070        3.93983        1.31250
   C       -6.10359        1.18089       -0.14795
   H       -7.21872       -0.45442       -1.05964
   N       -4.93342        2.82648        0.76380
   N       -4.80454        0.83930       -0.29914
   C       -4.09722        1.86866        0.26023
   C       -4.61834        4.05925        1.49061
   H       -5.10986        4.03507        2.48587
   H       -4.99159        4.93729        0.92270
   H       -3.53305        4.16903        1.67481
   C       -4.28162       -0.35173       -0.97720
   H       -5.09414       -0.97345       -1.39891
   H       -3.72406       -0.99592       -0.27414
   H       -3.61920       -0.04290       -1.81281
   C       -2.60477        1.94612        0.28680
   C       -1.92311        3.11447       -0.14268
   C       -0.51014        3.14001       -0.09758
   C       -1.85789        0.84108        0.73330
   C       -0.46553        0.88724        0.77192
   H       -2.34460       -0.05506        1.08472
   C        0.20583        2.03333        0.35882
   H        0.06561        3.99270       -0.41685
   H        1.28758        2.06378        0.38851
   H        0.09454        0.03201        1.12782
   O       -2.66280        4.15459       -0.62085
   C       -2.25958        5.40254       -1.05974
   H       -1.17410        5.58292       -0.98395
   H       -2.77389        6.17686       -0.45439
   H       -2.56266        5.52706       -2.11952
  Cl       -5.39238        3.75363       -2.77142
*

