# avogadro generated ORCA input file 
# Basic Mode
# 
! wB97x-D3 OPT def2-TZVP def2/3 CPCM
%cpcm
epsilon 3
end 
% pal
nprocs 4
end

* xyz 0 1
   C       -1.23949        1.88274        0.00064
   C        0.14689        1.88590       -0.00064
   N       -1.99717        3.10127        0.17814
   N       -1.99143        0.66049       -0.17552
   N        0.89909        3.11726       -0.09208
   N        0.90431        0.65768        0.08947
   C       -1.63184        4.09956        1.17153
   H       -0.71264        3.82281        1.72675
   H       -2.44656        4.18522        1.92133
   H       -1.50677        5.09326        0.69686
   C       -3.23616        3.31848       -0.55005
   H       -3.43458        2.50649       -1.28039
   H       -3.16661        4.26699       -1.12327
   H       -4.08975        3.38717        0.15719
   C        0.52907        4.18122       -1.01292
   H       -0.38901        3.94006       -1.58629
   H        1.34322        4.32298       -1.75479
   H        0.39969        5.13855       -0.46962
   C        2.13729        3.28832        0.64963
   H        2.33951        2.42795        1.32116
   H        2.06366        4.19391        1.28804
   H        2.99038        3.41031       -0.05099
   C        2.14097        0.49101       -0.65575
   H        2.33778        1.35180       -1.32837
   H        2.06901       -0.41528       -1.29336
   H        2.99660        0.37281        0.04242
   C        0.54106       -0.40697        1.01222
   H       -0.37636       -0.16888        1.58795
   H        1.35784       -0.54489        1.75192
   H        0.41384       -1.36527        0.47016
   C       -1.62350       -0.33526       -1.17052
   H       -0.70720       -0.05333       -1.72795
   H       -2.43972       -0.42465       -1.91826
   H       -1.49196       -1.32861       -0.69691
   C       -3.22730        0.43649        0.55586
   H       -3.42791        1.24713        1.28712
   H       -3.15126       -0.51193        1.12840
   H       -4.08243        0.36371       -0.14910
*

