# avogadro generated ORCA input file 
# Basic Mode
# 
! wB97X-D3 OPT def2-TZVP def2/J CPCM
%cpcm
  epsilon 3
end
%pal
 nprocs 4
end

* xyz 0 1
   C        0.90987        2.14607        1.20757
   C        0.16600        0.94740        0.67784
   H        0.54306        2.40887        2.22069
   H        0.75543        3.01024        0.52639
   H        2.00301        1.95916        1.27003
   C       -2.04729        2.21333        0.83605
   C       -1.24925        0.98098        0.49850
   H       -3.12891        2.07430        0.62495
   H       -1.69095        3.06789        0.22201
   H       -1.93180        2.46190        1.91090
   C        0.89159       -0.21219        0.32136
   C       -1.91307       -0.14420       -0.03730
   C        0.19726       -1.29487       -0.22899
   H        1.96576       -0.23541        0.43368
   C       -1.15297       -1.25611       -0.40020
   H       -2.98230       -0.13408       -0.20560
   N        0.70439       -2.50717       -0.75830
   N       -1.58235       -2.42948       -1.05242
   C       -0.40227       -3.21290       -1.40810
   C       -0.47262       -4.70890       -1.10541
   H       -0.28351       -3.14304       -2.51192
   C        2.09783       -2.90544       -0.78111
   H        2.21782       -3.87456       -0.25342
   H        2.74578       -2.17174       -0.26533
   H        2.44421       -3.00168       -1.82986
   C       -2.94231       -2.68066       -1.48052
   H       -3.29327       -1.84898       -2.12529
   H       -3.60423       -2.75543       -0.59115
   H       -3.00454       -3.62555       -2.05912
   C        0.51408       -5.52452       -1.67875
   C       -1.57309       -6.73028       -0.29452
   C        0.46050       -6.91213       -1.58005
   H        1.31725       -5.08841       -2.25745
   C       -0.59625       -7.55716       -0.90485
   H        1.23590       -7.45559       -2.09498
   C       -1.51098       -5.33057       -0.39120
   H       -2.40235       -7.14336        0.25833
   H       -2.29489       -4.75057        0.07322
   N       -0.69112       -9.00305       -0.88220
   C        0.45445       -9.87084       -1.13134
   H        1.41620       -9.33586       -1.21161
   H        0.29128      -10.45425       -2.06337
   H        0.57404      -10.57909       -0.28467
   C       -1.95664       -9.69568       -0.67717
   H       -1.89819      -10.33573        0.22771
   H       -2.16682      -10.34227       -1.55725
   H       -2.82674       -9.02304       -0.58720
*

